6695
0 1 0 1 0 1 0 0 1 0 0 0 1 0 0 1 0 0 0 0 
12 8 3 5 15 8 1 3 12 1 3 3 15 5 15 15 8 3 5 5 5 3 5 8 12 12 3 12 3 3 1 15 15 8 5 8 5 15 1 1 3 3 3 12 5 5 8 15 15 15 1 1 1 3 3 5 12 5 5 5 3 3 3 3 3 3 1 15 3 15 5 8 15 8 15 15 8 8 15 15 
